
c turning on binary mode checking

c parsing input formula with 12041 variables and 38188 clauses

c finished parsing, read 4157 bytes from proof file

c detected empty clause; start verification via backward checking

c 292 of 38188 clauses in core                            

c 43 of 620 lemmas in core using 334 resolution steps

c 0 RAT lemmas in core; 0 redundant literals in core lemmas

s VERIFIED

c verification time: 0.067 seconds
